37995
0 0 1 0 0 0 1 1 1 0 0 1 1 1 0 0 1 0 1 0 0 0 0 0 0 0 0 1 1 0 
18 6 2 27 2 12 16 27 18 28 6 28 13 13 28 18 13 8 18 27 18 16 2 27 13 18 27 28 6 2 6 6 6 16 27 6 8 8 27 16 18 8 12 6 8 6 13 2 28 28 27 16 16 16 8 12 11 8 18 7 6 27 7 8 13 11 2 28 11 11 18 12 6 8 28 13 8 2 8 16 13 2 8 7 12 13 6 2 27 7 11 6 7 11 2 13 11 12 2 28 28 16 12 18 12 27 12 27 18 13 6 6 18 12 12 8 11 7 28 8 11 11 28 6 6 16 16 11 6 28 28 27 11 8 13 8 13 13 28 28 12 18 11 11 11 2 16 16 18 7 27 28 13 27 8 11 2 16 8 13 13 27 13 16 2 27 2 12 13 2 2 8 28 28 6 2 27 8 12 8 2 16 16 28 12 8 11 13 27 16 2 2 6 6 7 12 7 2 28 6 
